SDVRP instances/custom_instances/p03_18_split0.vrp
NAME:p03_18_split
BEST_KNOWN: 0
COMMENT: 0
DIMENSION: 458
CAPACITY: 200
EDGE_WEIGHT_FORMAT: FUNCTION
EDGE_WEIGHT_TYPE: EXACT_2D
NODE_COORD_SECTION
1 0.00000 0.00000
2 16 -31
3 16 -31
4 16 -31
5 16 -31
6 16 -31
7 16 -31
8 -2 25
9 -2 25
10 -2 25
11 -2 25
12 -2 25
13 -28 50
14 -28 50
15 -28 50
16 -28 50
17 -19 20
18 -19 20
19 -34 21
20 -34 21
21 -34 21
22 -34 21
23 -34 21
24 12 25
25 12 25
26 12 25
27 12 25
28 12 25
29 26 38
30 26 38
31 26 38
32 26 38
33 26 38
34 -50 -5
35 -50 -5
36 -50 -5
37 -50 -5
38 -50 -5
39 45 18
40 45 18
41 45 18
42 45 18
43 45 18
44 45 18
45 45 18
46 8 8
47 8 8
48 8 8
49 -35 15
50 -35 15
51 -35 15
52 -35 15
53 28 10
54 28 10
55 28 10
56 28 10
57 28 10
58 -16 -41
59 -16 -41
60 -16 -41
61 -16 -41
62 46 7
63 46 7
64 46 7
65 46 7
66 46 7
67 -35 50
68 -35 50
69 -35 50
70 -35 50
71 -35 50
72 -35 50
73 -27 -23
74 -27 -23
75 -27 -23
76 -27 -23
77 -27 -23
78 -33 28
79 -33 28
80 -33 28
81 -24 23
82 -24 23
83 -24 23
84 -24 23
85 38 -21
86 38 -21
87 38 -21
88 38 -21
89 38 -21
90 38 -21
91 -7 30
92 -7 30
93 -7 30
94 -7 30
95 -7 30
96 -7 30
97 -7 30
98 -7 -22
99 -7 -22
100 -7 -22
101 -12 -12
102 -12 -12
103 -12 -12
104 -12 -12
105 -12 -12
106 -12 -12
107 -33 -27
108 -33 -27
109 -33 -27
110 -29 -3
111 -29 -3
112 -29 -3
113 -29 -3
114 -29 -3
115 38 22
116 38 22
117 38 22
118 38 22
119 38 22
120 23 -27
121 23 -27
122 23 -27
123 23 -27
124 23 -27
125 23 -27
126 49 44
127 49 44
128 44 42
129 44 42
130 19 -50
131 19 -50
132 19 -50
133 19 -50
134 19 -50
135 19 -50
136 19 -50
137 19 -50
138 4 -10
139 4 -10
140 4 -10
141 4 -10
142 4 -10
143 -26 -36
144 -26 -36
145 -26 -36
146 -26 -36
147 -26 -36
148 -26 -36
149 35 31
150 35 31
151 35 31
152 35 31
153 35 31
154 -32 -44
155 -32 -44
156 -40 50
157 -40 50
158 -40 50
159 -40 50
160 -40 50
161 14 -17
162 14 -17
163 14 -17
164 14 -17
165 14 -17
166 14 -17
167 13 13
168 -17 -3
169 -17 -3
170 -17 -3
171 -17 -3
172 0 -9
173 0 -9
174 0 -9
175 0 -9
176 0 -9
177 0 -9
178 -32 -27
179 -32 -27
180 -32 -27
181 -32 -27
182 10 34
183 10 34
184 10 34
185 10 34
186 10 34
187 10 34
188 -42 43
189 -42 43
190 -42 43
191 48 42
192 48 42
193 48 42
194 48 42
195 23 23
196 23 23
197 23 23
198 35 10
199 35 10
200 35 10
201 35 10
202 35 10
203 35 10
204 35 10
205 35 10
206 3 19
207 3 19
208 3 19
209 3 19
210 -50 3
211 -50 3
212 -50 3
213 -50 3
214 -1 3
215 -1 3
216 -1 3
217 -1 3
218 -1 3
219 19 30
220 19 30
221 19 30
222 13 -18
223 13 -18
224 13 -18
225 40 -5
226 40 -5
227 40 -5
228 40 -5
229 40 -5
230 40 -5
231 40 -5
232 2 -6
233 2 -6
234 2 -6
235 2 -6
236 2 -6
237 2 -6
238 2 -6
239 -32 -47
240 -32 -47
241 -32 -47
242 -32 -47
243 -32 -47
244 39 38
245 39 38
246 39 38
247 39 38
248 39 38
249 39 38
250 39 38
251 39 38
252 42 44
253 42 44
254 42 44
255 42 44
256 -41 0
257 -41 0
258 -41 0
259 -41 0
260 -41 0
261 -41 0
262 -43 19
263 -43 19
264 -43 19
265 -43 19
266 -43 19
267 -43 19
268 -43 19
269 -40 5
270 -40 5
271 -40 5
272 -40 5
273 -40 5
274 -40 5
275 48 23
276 48 23
277 -2 -24
278 -2 -24
279 -2 -24
280 -2 -24
281 4 47
282 4 47
283 4 47
284 24 -2
285 24 -2
286 24 -2
287 24 -2
288 17 37
289 17 37
290 17 37
291 3 6
292 3 6
293 3 6
294 -47 -44
295 -47 -44
296 -47 -44
297 -47 -44
298 -47 -44
299 -36 27
300 -36 27
301 -36 27
302 -36 27
303 -36 27
304 -36 27
305 -36 27
306 -36 27
307 46 -48
308 46 -48
309 46 -48
310 46 -48
311 46 -48
312 46 -48
313 46 -48
314 -45 -41
315 -45 -41
316 -45 -41
317 -45 -41
318 -45 -41
319 -45 -41
320 -44 -30
321 -44 -30
322 -44 -30
323 -44 -30
324 -20 39
325 -20 39
326 -20 39
327 -20 39
328 -20 39
329 -20 39
330 -20 39
331 19 -34
332 19 -34
333 19 -34
334 19 -34
335 16 3
336 16 3
337 16 3
338 16 3
339 16 3
340 16 -46
341 16 -46
342 16 -46
343 16 -46
344 16 -46
345 -30 -32
346 -30 -32
347 -30 -32
348 -30 -32
349 -30 -32
350 -5 -41
351 -5 -41
352 -5 -41
353 41 18
354 41 18
355 41 18
356 -34 18
357 -34 18
358 -34 18
359 -34 18
360 -34 18
361 -11 36
362 -11 36
363 -11 36
364 -11 36
365 -11 36
366 50 -12
367 50 -12
368 50 -12
369 -43 25
370 -43 25
371 -43 25
372 -43 25
373 33 -4
374 33 -4
375 33 -4
376 33 -4
377 33 -4
378 19 7
379 19 7
380 19 7
381 -25 -49
382 -25 -49
383 -25 -49
384 -25 -49
385 -25 -49
386 -25 -49
387 31 8
388 31 8
389 31 8
390 31 8
391 31 8
392 31 8
393 41 2
394 41 2
395 41 2
396 41 2
397 41 2
398 41 2
399 -46 -48
400 -46 -48
401 -46 -48
402 -46 -48
403 15 37
404 15 37
405 -17 3
406 32 12
407 32 12
408 32 12
409 32 12
410 32 12
411 -33 -7
412 -33 -7
413 -33 -7
414 -33 -7
415 45 -19
416 45 -19
417 45 -19
418 45 -19
419 45 -19
420 45 -19
421 -31 -30
422 -31 -30
423 -31 -30
424 -31 -30
425 -31 -30
426 -22 -5
427 -22 -5
428 -22 -5
429 -22 -5
430 -22 -5
431 -23 49
432 -23 49
433 33 -3
434 33 -3
435 33 -3
436 33 -3
437 45 -16
438 45 -16
439 45 -16
440 -12 48
441 -12 48
442 -12 48
443 -6 -39
444 -6 -39
445 -6 -39
446 -6 -39
447 -6 -39
448 -6 -39
449 -35 -33
450 -35 -33
451 -35 -33
452 -35 -33
453 42 46
454 42 46
455 42 46
456 42 -23
457 42 -23
458 42 -23
DEMAND_SECTION
1 0
2 20
3 2
4 2
5 2
6 2
7 1
8 40
9 2
10 2
11 2
12 2
13 40
14 40
15 2
16 2
17 40
18 2
19 40
20 2
21 2
22 2
23 1
24 40
25 20
26 10
27 2
28 2
29 40
30 20
31 2
32 2
33 2
34 40
35 10
36 2
37 2
38 1
39 40
40 20
41 10
42 2
43 2
44 2
45 2
46 40
47 40
48 10
49 40
50 10
51 2
52 1
53 40
54 40
55 2
56 2
57 1
58 40
59 40
60 2
61 2
62 40
63 40
64 10
65 2
66 2
67 40
68 40
69 2
70 2
71 2
72 2
73 40
74 20
75 10
76 2
77 2
78 40
79 2
80 2
81 40
82 40
83 10
84 2
85 40
86 10
87 2
88 2
89 2
90 1
91 40
92 40
93 10
94 2
95 2
96 2
97 2
98 40
99 2
100 1
101 40
102 20
103 2
104 2
105 2
106 2
107 20
108 10
109 1
110 40
111 40
112 10
113 2
114 2
115 20
116 2
117 2
118 2
119 2
120 40
121 40
122 2
123 2
124 2
125 2
126 40
127 1
128 40
129 40
130 40
131 20
132 10
133 2
134 2
135 2
136 2
137 1
138 40
139 40
140 2
141 2
142 1
143 40
144 20
145 10
146 2
147 2
148 1
149 40
150 40
151 2
152 2
153 2
154 40
155 1
156 20
157 10
158 2
159 2
160 1
161 40
162 10
163 2
164 2
165 2
166 2
167 40
168 40
169 20
170 10
171 2
172 40
173 40
174 10
175 2
176 2
177 2
178 40
179 2
180 2
181 2
182 40
183 10
184 2
185 2
186 2
187 1
188 20
189 10
190 2
191 40
192 40
193 10
194 1
195 40
196 20
197 1
198 40
199 40
200 10
201 2
202 2
203 2
204 2
205 1
206 40
207 40
208 10
209 1
210 40
211 40
212 2
213 1
214 20
215 2
216 2
217 2
218 1
219 40
220 20
221 2
222 40
223 40
224 20
225 40
226 10
227 2
228 2
229 2
230 2
231 1
232 40
233 40
234 2
235 2
236 2
237 2
238 1
239 40
240 40
241 2
242 2
243 2
244 40
245 20
246 10
247 2
248 2
249 2
250 2
251 1
252 40
253 10
254 2
255 1
256 40
257 20
258 2
259 2
260 2
261 1
262 20
263 10
264 2
265 2
266 2
267 2
268 1
269 40
270 10
271 2
272 2
273 2
274 1
275 40
276 1
277 40
278 20
279 2
280 1
281 40
282 40
283 20
284 20
285 10
286 2
287 2
288 40
289 40
290 1
291 40
292 20
293 1
294 40
295 40
296 2
297 2
298 1
299 40
300 20
301 10
302 2
303 2
304 2
305 2
306 1
307 40
308 40
309 2
310 2
311 2
312 2
313 1
314 40
315 20
316 10
317 2
318 2
319 1
320 40
321 20
322 2
323 2
324 20
325 10
326 2
327 2
328 2
329 2
330 1
331 20
332 2
333 2
334 1
335 40
336 20
337 10
338 2
339 2
340 40
341 2
342 2
343 2
344 1
345 40
346 40
347 2
348 2
349 2
350 40
351 40
352 20
353 40
354 10
355 1
356 40
357 20
358 2
359 2
360 2
361 40
362 40
363 10
364 2
365 1
366 20
367 10
368 2
369 40
370 40
371 2
372 1
373 40
374 40
375 10
376 2
377 1
378 40
379 2
380 2
381 40
382 2
383 2
384 2
385 2
386 1
387 20
388 2
389 2
390 2
391 2
392 1
393 40
394 40
395 2
396 2
397 2
398 2
399 20
400 10
401 2
402 2
403 40
404 2
405 40
406 40
407 20
408 2
409 2
410 2
411 40
412 40
413 10
414 1
415 20
416 10
417 2
418 2
419 2
420 2
421 20
422 10
423 2
424 2
425 1
426 20
427 10
428 2
429 2
430 2
431 40
432 20
433 40
434 10
435 2
436 1
437 20
438 10
439 1
440 40
441 40
442 20
443 40
444 10
445 2
446 2
447 2
448 2
449 40
450 40
451 2
452 1
453 40
454 20
455 10
456 40
457 40
458 10
DEPOT_SECTION
1
-1
EOF