SDVRP instances/custom_instances/p03_18_split0.sol
457 -6 2 5 3 4 1 330 333 124 123 122 121 119 120 161 163 165 160 164 162 -13 69 67 68 70 71 66 158 155 156 157 159 188 187 189 -16 17 80 358 359 356 357 355 49 48 50 -22 21 20 18 19 305 304 298 77 79 78 82 83 81 -24 289 287 288 403 402 186 181 182 184 185 183 -32 29 31 30 453 454 452 254 253 252 251 127 47 -45 46 205 206 290 -73 76 75 180 178 179 177 107 424 423 421 422 420 345 347 344 -74 72 143 142 57 59 58 60 98 99 -84 419 415 414 418 417 416 437 438 436 367 365 366 224 226 229 230 225 228 227 -88 85 87 86 89 455 457 456 307 306 309 311 312 310 308 -97 444 445 442 446 447 443 349 351 350 -100 411 413 410 412 259 260 255 257 256 258 -101 104 103 105 102 450 449 451 448 322 321 320 319 106 108 -111 109 113 110 426 425 429 427 428 169 170 168 167 -112 34 37 36 35 33 212 209 210 211 271 270 269 268 273 272 -115 116 117 114 118 275 274 41 38 42 44 39 40 43 353 354 352 -141 139 140 137 138 222 221 223 -145 147 144 146 154 153 242 238 241 239 240 381 383 382 380 384 385 -150 151 193 190 191 192 126 125 128 244 246 248 -152 148 149 245 249 247 243 250 28 291 292 -166 52 53 377 334 -176 172 175 174 173 171 232 231 235 237 234 236 233 -195 194 196 219 220 218 25 23 26 27 213 215 -200 204 199 202 201 65 64 63 61 62 392 397 393 395 394 396 -207 208 8 10 9 7 11 95 92 93 90 91 360 364 363 216 -217 214 94 96 361 362 430 431 12 14 15 326 328 325 327 324 329 323 -276 277 278 279 342 343 339 341 340 129 134 132 131 133 135 136 130 332 331 -281 282 280 439 441 440 -283 284 285 286 376 374 373 372 375 434 432 433 435 335 -303 301 302 299 300 370 369 371 368 263 265 261 264 266 267 262 51 404 -317 316 318 313 315 314 295 297 293 294 296 398 400 401 399 348 346 -338 336 337 389 391 387 388 386 390 198 197 203 408 409 406 407 405 54 56 55 378 379 0 





OBJ=
3140.137
BEST_KNOWN=
0.000